p cnf 11 31
11 10 6 0
-11 -10 3 0
11 -8 -7 0
-11 8 -4 0
-11 -8 3 0
11 -7 -4 0
-11 7 -2 0
11 -5 -3 0
-11 4 -1 0
-10 -9 -1 0
10 -8 4 0
-10 5 2 0
10 5 -1 0
10 3 2 0
10 3 1 0
10 2 1 0
-9 8 -7 0
-9 8 3 0
9 -7 -3 0
-9 6 3 0
-9 5 1 0
-9 -5 -1 0
8 -6 1 0
-8 -4 3 0
7 -6 -4 0
7 5 3 0
-7 4 -3 0
-7 2 1 0
-6 -4 -2 0
-6 -3 2 0
4 -3 1 0
